VALUE 2200403
1 269
8 87
9 269
13 194
17 261
21 230
21 22
22 23
23 24
25 201
29 165
35 259
40 243
43 192
43 44
48 165
52 236
53 186
53 54
58 177
60 61
61 288
64 128
68 107
74 120
75 91
82 106
86 94
87 88
88 93
86 91
93 94
94 96
82 96
106 108
107 123
108 118
118 120
120 127
123 124
64 124
127 130
128 130
60 130
165 169
169 171
25 171
169 172
61 173
173 177
177 185
185 186
172 191
192 195
191 194
195 198
198 230
44 201
54 209
209 214
214 229
40 230
229 235
235 236
243 255
229 245
245 247
255 261
247 259
259 261
24 269
1 273
8 274
9 275
13 276
17 277
23 278
25 279
29 280
35 281
40 282
44 283
48 284
52 285
54 286
58 287
64 289
68 290
74 291
75 292
82 293
86 294

